n = 14;
coop=array2d(1..n, 1..n, 
[0,	15,	3,	13,	4,	1,	5,	4,	4,	1,	1,	11,	10,	1,
 15,	0,	3,	13,	4,	11,	10,	9,	11,	7,	1,	5,	4,	1,
 3,	3,	0,	13,	4,	11,	10,	9,	10,	7,	1,	5,	4,	1,
 13,	13,	13,	0,	4,	11,	10,	9,	9,	7,	1,	5,	4,	1,
 4,	4,	4,	4,	0,	1,	5,	4,	8,	1,	1,	11,	10,	1,
 1,	11,	11,	11,	1,	0,	10,	9,	7,	7,	1,	5,	4,	1,
 5,	10,	10,	10,	5,	10,	0,	9,	8,	7,	1,	5,	4,	1,
 4,	9,	9,	9,	4,	9,	9,	0,	8,	7,	1,	5,	4,	1,
4,	11,	10,	9,	10,	7,	8,	8,	0,	7,	1,	5,	4,	1,
 1,	7,	7,	7,	1,	7,	7,	7,	7,	0,	1,	5,	4,	1,
 1,	1,	1,	1,	1,	1,	1,	1,	1,	1,	0,	5,	4,	1,
 11,	5,	5,	5,	11,	5,	5,	5,	5,	5,	5,	0,	4,	4,
 10,	4,	4,	4,	10,	4,	4,	4,	4,	4,	4,	4,	0,	3,
 1,	1,	1,	1,	1,	1,	1,	1,	1,	1,	1,	4,	3,	0]);